NAME: tsp50_4
COMMENT: 50-tsp problem (Padberg/Rinaldi)
TYPE: TSP
DIMENSION: 50
EDGE_WEIGHT_TYPE : EUC_2D
NODE_COORD_SECTION
1 14 27
2 13 15
3 20 31
4 5 14
5 24 4
6 39 10
7 27 10
8 2 34
9 32 23
10 11 3
11 40 6
12 15 1
13 11 8
14 37 21
15 3 37
16 13 20
17 0 35
18 34 10
19 19 34
20 22 2
21 39 28
22 7 3
23 37 22
24 1 18
25 9 13
26 39 23
27 6 4
28 30 25
29 27 9
30 21 36
31 7 26
32 32 35
33 28 32
34 35 40
35 38 1
36 11 38
37 24 5
38 7 26
39 33 5
40 22 36
41 32 21
42 20 20
43 30 9
44 33 14
45 29 9
46 5 40
47 28 20
48 21 37
49 32 9
50 37 24
